20
133
10
91
18
95
28
6
60
66
84
34
4
0 1
0 2
0 4
0 5
0 6
0 8
0 11
0 12
0 14
0 18
0 19
1 2
1 3
1 6
1 8
1 9
1 10
1 11
1 12
1 13
1 15
1 16
1 19
2 3
2 4
2 8
2 9
2 10
2 11
2 12
2 14
2 16
2 17
3 4
3 6
3 7
3 8
3 11
3 12
3 13
3 14
3 15
3 17
3 19
4 5
4 6
4 8
4 9
4 11
4 13
4 14
4 15
4 16
5 6
5 7
5 9
5 12
5 13
5 15
5 16
5 18
5 19
6 7
6 8
6 9
6 10
6 11
6 13
6 14
6 15
6 16
6 17
6 18
6 19
7 8
7 9
7 10
7 11
7 12
7 13
7 14
7 15
7 16
7 17
7 19
8 9
8 10
8 11
8 12
8 14
8 16
8 17
8 18
8 19
9 11
9 12
9 16
9 18
10 11
10 13
10 14
10 15
10 17
10 18
10 19
11 12
11 13
11 14
11 15
11 16
11 17
11 18
11 19
12 13
12 14
12 15
12 16
12 17
13 14
13 16
13 18
13 19
14 15
14 16
14 18
15 16
15 17
15 19
16 18
16 19
17 18
17 19
18 19
6 16
10 4
0 5
1 12
7 18
2 19
3 15
11 14
8 13
9 17
